NAME: tsp20_9
COMMENT: 20-tsp problem (Padberg/Rinaldi)
TYPE: TSP
DIMENSION: 20
EDGE_WEIGHT_TYPE : EUC_2D
NODE_COORD_SECTION
1 2 27
2 33 26
3 34 34
4 10 29
5 35 16
6 37 1
7 18 21
8 14 29
9 28 38
10 36 14
11 12 20
12 24 15
13 10 7
14 32 14
15 2 30
16 33 33
17 40 31
18 6 25
19 14 27
20 34 31
